60
13 65
27 92
25 14
10 76
9 52
3 54
19 58
26 84
22 45
10 34
22 76
4 97
19 85
18 73
2 98
14 3
16 14
17 70
17 92
5 27
22 87
17 88
3 81
5 2
27 6
1 36
2 28
4 65
9 41
20 32
6 60
23 4
5 84
15 52
20 74
30 70
19 61
13 56
27 83
29 70
15 43
3 69
25 37
29 86
19 73
4 18
21 55
8 57
20 98
1 64
25 89
11 30
16 45
18 94
25 94
19 16
6 19
17 63
10 21
25 87
